Instance0
Gap
100.00%
100.00%
75.42%
73.26%
64.88%
58.51%
53.96%
53.87%
53.72%
49.75%
49.52%
49.47%
43.93%
43.87%
CPXPARAM_MIP_Cuts_Disjunctive 10
Instance1
Gap
100.00%
100.00%
100.00%
99.28%
95.31%
63.12%
54.59%
53.99%
53.63%
53.59%
46.18%
CPXPARAM_MIP_Cuts_Disjunctive 16
Instance2
Gap
100.00%
100.00%
68.57%
60.19%
57.07%
57.06%
48.55%
43.84%
43.80%
CPXPARAM_MIP_Cuts_Disjunctive 3
Instance3
Gap
100.00%
100.00%
99.62%
99.49%
96.38%
90.91%
88.41%
88.33%
88.05%
85.11%
84.92%
84.81%
CPXPARAM_MIP_Cuts_Disjunctive 9
Instance4
Gap
100.00%
100.00%
100.00%
76.86%
72.59%
66.20%
57.70%
57.70%
48.50%
47.96%
47.39%
CPXPARAM_MIP_Cuts_Disjunctive 7
Instance5
Gap
100.00%
100.00%
100.00%
99.40%
99.04%
89.30%
65.81%
62.41%
62.28%
61.57%
61.45%
61.28%
CPXPARAM_MIP_Cuts_Disjunctive 13
Instance6
Gap
100.00%
100.00%
69.98%
65.46%
61.28%
49.10%
41.94%
40.17%
39.83%
38.47%
38.36%
37.02%
36.99%
CPXPARAM_MIP_Cuts_Disjunctive 6
Instance7
Gap
100.00%
100.00%
100.00%
99.99%
92.16%
83.54%
82.78%
80.25%
CPXPARAM_MIP_Cuts_Disjunctive 10
Instance8
Gap
100.00%
100.00%
59.21%
53.34%
45.00%
44.69%
42.87%
42.33%
42.05%
40.30%
40.26%
40.24%
23.25%
21.67%
21.64%
CPXPARAM_MIP_Cuts_Disjunctive 13
Instance9
Gap
100.00%
100.00%
100.00%
99.37%
99.21%
92.80%
88.53%
87.02%
85.91%
85.80%
85.68%
84.12%
84.12%
CPXPARAM_MIP_Cuts_Disjunctive 12
Instance10
Gap
100.00%
100.00%
62.81%
59.89%
50.60%
35.61%
34.97%
34.29%
32.44%
31.98%
31.97%
22.67%
20.81%
CPXPARAM_MIP_Cuts_Disjunctive 7
Instance11
Gap
100.00%
100.00%
99.97%
99.93%
91.86%
89.10%
88.31%
86.68%
86.59%
85.90%
83.96%
83.22%
83.03%
CPXPARAM_MIP_Cuts_Disjunctive 12
Instance12
Gap
100.00%
100.00%
69.71%
64.56%
53.72%
53.08%
52.51%
50.77%
50.58%
49.89%
43.91%
41.67%
32.59%
32.15%
28.64%
28.49%
CPXPARAM_MIP_Cuts_Disjunctive 7
Instance13
Gap
100.00%
100.00%
100.00%
99.35%
99.30%
94.29%
91.09%
90.21%
86.28%
82.67%
74.57%
73.34%
72.87%
70.43%
65.39%
65.25%
65.08%
64.99%
64.73%
64.12%
CPXPARAM_MIP_Cuts_Disjunctive 17
Instance14
Gap
100.00%
100.00%
67.25%
61.80%
57.45%
50.87%
46.78%
37.97%
37.13%
36.72%
36.70%
36.64%
33.42%
33.01%
CPXPARAM_MIP_Cuts_Disjunctive 7
Instance15
Gap
100.00%
100.00%
99.71%
99.31%
88.22%
75.61%
75.61%
75.61%
75.32%
62.72%
55.38%
CPXPARAM_MIP_Cuts_Disjunctive 11
Instance16
Gap
100.00%
100.00%
60.68%
59.49%
50.57%
30.64%
30.09%
28.05%
21.75%
21.36%
17.62%
17.61%
CPXPARAM_MIP_Cuts_Disjunctive 11
Instance17
Gap
100.00%
100.00%
100.00%
99.43%
99.32%
93.63%
86.11%
85.40%
84.52%
84.35%
84.12%
84.07%
CPXPARAM_MIP_Cuts_Disjunctive 14
Instance18
Gap
100.00%
100.00%
57.84%
51.78%
45.34%
31.80%
26.75%
26.72%
26.18%
23.82%
23.06%
23.06%
19.41%
19.38%
CPXPARAM_MIP_Cuts_Disjunctive 8
Instance19
Gap
100.00%
100.00%
99.54%
99.29%
93.70%
86.31%
84.80%
84.17%
82.38%
CPXPARAM_MIP_Cuts_Disjunctive 12
Instance20
Gap
100.00%
100.00%
89.26%
78.36%
62.92%
62.55%
60.13%
58.72%
56.52%
53.77%
51.96%
51.84%
51.71%
CPXPARAM_MIP_Cuts_Disjunctive 11
Instance21
Gap
100.00%
100.00%
100.00%
99.52%
98.54%
91.93%
89.95%
85.30%
83.79%
83.64%
75.31%
75.05%
72.19%
CPXPARAM_MIP_Cuts_Disjunctive 18
Instance22
Gap
100.00%
100.00%
88.62%
70.72%
49.95%
42.89%
39.29%
35.45%
33.88%
33.11%
CPXPARAM_MIP_Cuts_Disjunctive 7
Instance23
Gap
100.00%
100.00%
99.78%
99.46%
91.87%
44.26%
43.06%
38.14%
CPXPARAM_MIP_Cuts_Disjunctive 9
Instance24
Gap
100.00%
100.00%
84.00%
78.89%
64.96%
59.71%
53.88%
53.88%
53.88%
53.70%
51.86%
51.32%
CPXPARAM_MIP_Cuts_Disjunctive 8
Instance25
Gap
100.00%
100.00%
99.59%
99.18%
94.51%
73.80%
70.03%
68.06%
68.06%
63.27%
56.30%
CPXPARAM_MIP_Cuts_Disjunctive 16
Instance26
Gap
100.00%
100.00%
84.48%
68.92%
46.15%
37.97%
37.92%
34.37%
31.44%
21.01%
20.94%
CPXPARAM_MIP_Cuts_Disjunctive 8
Instance27
Gap
100.00%
100.00%
99.81%
99.61%
95.18%
86.50%
67.06%
53.46%
CPXPARAM_MIP_Cuts_Disjunctive 8
Instance28
Gap
100.00%
100.00%
100.00%
69.66%
57.32%
55.93%
54.35%
49.97%
45.26%
45.24%
44.11%
32.50%
32.28%
31.96%
CPXPARAM_MIP_Cuts_Disjunctive 9
Instance29
Gap
100.00%
100.00%
100.00%
100.00%
94.42%
83.59%
78.90%
67.54%
62.58%
60.98%
60.30%
CPXPARAM_MIP_Cuts_Disjunctive 14
Instance30
Gap
100.00%
100.00%
69.10%
61.90%
52.97%
50.17%
47.99%
46.05%
44.50%
44.11%
41.65%
38.46%
29.22%
29.08%
CPXPARAM_MIP_Cuts_Disjunctive 8
Instance31
Gap
100.00%
100.00%
99.75%
99.32%
91.59%
82.26%
75.91%
70.16%
69.31%
38.57%
36.23%
35.05%
Gap
35.05%
0.77%
0.77%
0.77%
0
CPXPARAM_MIP_Cuts_Disjunctive 2
Instance32
Gap
100.00%
100.00%
100.00%
69.77%
63.45%
56.77%
48.84%
46.38%
45.70%
45.35%
44.68%
31.70%
31.68%
CPXPARAM_MIP_Cuts_Disjunctive 12
Instance33
Gap
100.00%
100.00%
100.00%
98.79%
92.69%
81.05%
79.40%
77.19%
72.29%
68.78%
67.73%
57.23%
42.21%
37.55%
32.26%
CPXPARAM_MIP_Cuts_Disjunctive 13
Instance34
Gap
100.00%
100.00%
66.38%
51.74%
38.39%
33.98%
29.94%
26.98%
CPXPARAM_MIP_Cuts_Disjunctive 4
Instance35
Gap
100.00%
100.00%
99.38%
98.77%
87.63%
73.22%
72.18%
50.79%
23.55%
CPXPARAM_MIP_Cuts_Disjunctive 9
Instance36
Gap
100.00%
100.00%
100.00%
85.27%
82.45%
73.85%
72.93%
69.52%
62.69%
62.08%
61.84%
61.70%
60.18%
59.96%
59.92%
59.89%
55.80%
55.69%
CPXPARAM_MIP_Cuts_Disjunctive 12
Instance37
Gap
100.00%
100.00%
100.00%
100.00%
100.00%
95.89%
77.74%
77.40%
76.38%
75.72%
67.01%
64.84%
62.37%
58.48%
CPXPARAM_MIP_Cuts_Disjunctive 17
Instance38
Gap
100.00%
100.00%
78.46%
58.43%
34.42%
28.73%
27.22%
26.40%
CPXPARAM_MIP_Cuts_Disjunctive 9
Instance39
Gap
100.00%
100.00%
99.77%
99.55%
94.65%
86.43%
84.36%
80.60%
56.77%
53.57%
38.46%
CPXPARAM_MIP_Cuts_Disjunctive 10
Instance0
Gap
100.00%
100.00%
75.42%
73.26%
64.88%
58.51%
53.96%
53.87%
53.72%
49.75%
49.52%
49.47%
43.93%
43.87%
CPXPARAM_MIP_Cuts_Disjunctive 10
Instance1
Gap
100.00%
100.00%
100.00%
99.28%
95.31%
63.12%
54.59%
53.99%
53.63%
53.59%
46.18%
CPXPARAM_MIP_Cuts_Disjunctive 16
Instance2
Gap
100.00%
100.00%
68.57%
60.19%
57.07%
57.06%
48.55%
43.84%
43.80%
CPXPARAM_MIP_Cuts_Disjunctive 3
Instance3
Gap
100.00%
100.00%
99.62%
99.49%
96.38%
90.91%
88.41%
88.33%
88.05%
85.11%
84.92%
84.81%
CPXPARAM_MIP_Cuts_Disjunctive 9
Instance4
Gap
100.00%
100.00%
100.00%
76.86%
72.59%
66.20%
57.70%
57.70%
48.50%
47.96%
47.39%
CPXPARAM_MIP_Cuts_Disjunctive 7
Instance5
Gap
100.00%
100.00%
100.00%
99.40%
99.04%
89.30%
65.81%
62.41%
62.28%
61.57%
61.45%
61.28%
CPXPARAM_MIP_Cuts_Disjunctive 13
Instance6
Gap
100.00%
100.00%
69.98%
65.46%
61.28%
49.10%
41.94%
40.17%
39.83%
38.47%
38.36%
37.02%
36.99%
CPXPARAM_MIP_Cuts_Disjunctive 6
Instance7
Gap
100.00%
100.00%
100.00%
99.99%
92.16%
83.54%
82.78%
80.25%
CPXPARAM_MIP_Cuts_Disjunctive 10
Instance8
Gap
100.00%
100.00%
59.21%
53.34%
45.00%
44.69%
42.87%
42.33%
42.05%
40.30%
40.26%
40.24%
23.25%
21.67%
21.64%
CPXPARAM_MIP_Cuts_Disjunctive 13
Instance9
Gap
100.00%
100.00%
100.00%
99.37%
99.21%
92.80%
88.53%
87.02%
85.91%
85.80%
85.68%
84.12%
84.12%
CPXPARAM_MIP_Cuts_Disjunctive 12
Instance10
Gap
100.00%
100.00%
62.81%
59.89%
50.60%
35.61%
34.97%
34.29%
32.44%
31.98%
31.97%
22.67%
20.81%
CPXPARAM_MIP_Cuts_Disjunctive 7
Instance11
Gap
100.00%
100.00%
99.97%
99.93%
91.86%
89.10%
88.31%
86.68%
86.59%
85.90%
83.96%
83.22%
83.03%
CPXPARAM_MIP_Cuts_Disjunctive 12
Instance12
Gap
100.00%
100.00%
69.71%
64.56%
53.72%
53.08%
52.51%
50.77%
50.58%
49.89%
43.91%
41.67%
32.59%
32.15%
28.64%
28.49%
CPXPARAM_MIP_Cuts_Disjunctive 7
Instance13
Gap
100.00%
100.00%
100.00%
99.35%
99.30%
94.29%
91.09%
90.21%
86.28%
82.67%
74.57%
73.34%
72.87%
70.43%
65.39%
65.25%
65.08%
64.99%
64.73%
64.12%
CPXPARAM_MIP_Cuts_Disjunctive 17
Instance14
Gap
100.00%
100.00%
67.25%
61.80%
57.45%
50.87%
46.78%
37.97%
37.13%
36.72%
36.70%
36.64%
33.42%
33.01%
CPXPARAM_MIP_Cuts_Disjunctive 7
Instance15
Gap
100.00%
100.00%
99.71%
99.31%
88.22%
75.61%
75.61%
75.61%
75.32%
62.72%
55.38%
CPXPARAM_MIP_Cuts_Disjunctive 11
Instance16
Gap
100.00%
100.00%
60.68%
59.49%
50.57%
30.64%
30.09%
28.05%
21.75%
21.36%
17.62%
17.61%
CPXPARAM_MIP_Cuts_Disjunctive 11
Instance17
Gap
100.00%
100.00%
100.00%
99.43%
99.32%
93.63%
86.11%
85.40%
84.52%
84.35%
84.12%
84.07%
CPXPARAM_MIP_Cuts_Disjunctive 14
Instance18
Gap
100.00%
100.00%
57.84%
51.78%
45.34%
31.80%
26.75%
26.72%
26.18%
23.82%
23.06%
23.06%
19.41%
19.38%
CPXPARAM_MIP_Cuts_Disjunctive 8
Instance19
Gap
100.00%
100.00%
99.54%
99.29%
93.70%
86.31%
84.80%
84.17%
82.38%
CPXPARAM_MIP_Cuts_Disjunctive 12
Instance20
Gap
100.00%
100.00%
89.26%
78.36%
62.92%
62.55%
60.13%
58.72%
56.52%
53.77%
51.96%
51.84%
51.71%
CPXPARAM_MIP_Cuts_Disjunctive 11
Instance21
Gap
100.00%
100.00%
100.00%
99.52%
98.54%
91.93%
89.95%
85.30%
83.79%
83.64%
75.31%
75.05%
72.19%
CPXPARAM_MIP_Cuts_Disjunctive 18
Instance22
Gap
100.00%
100.00%
88.62%
70.72%
49.95%
42.89%
39.29%
35.45%
33.88%
33.11%
CPXPARAM_MIP_Cuts_Disjunctive 7
Instance23
Gap
100.00%
100.00%
99.78%
99.46%
91.87%
44.26%
43.06%
38.14%
CPXPARAM_MIP_Cuts_Disjunctive 9
Instance24
Gap
100.00%
100.00%
84.00%
78.89%
64.96%
59.71%
53.88%
53.88%
53.88%
53.70%
51.86%
51.32%
CPXPARAM_MIP_Cuts_Disjunctive 8
Instance25
Gap
100.00%
100.00%
99.59%
99.18%
94.51%
73.80%
70.03%
68.06%
68.06%
63.27%
56.30%
CPXPARAM_MIP_Cuts_Disjunctive 16
Instance26
Gap
100.00%
100.00%
84.48%
68.92%
46.15%
37.97%
37.92%
34.37%
31.44%
21.01%
20.94%
CPXPARAM_MIP_Cuts_Disjunctive 8
Instance27
Gap
100.00%
100.00%
99.81%
99.61%
95.18%
86.50%
67.06%
53.46%
CPXPARAM_MIP_Cuts_Disjunctive 8
Instance28
Gap
100.00%
100.00%
100.00%
69.66%
57.32%
55.93%
54.35%
49.97%
45.26%
45.24%
44.11%
32.50%
32.28%
31.96%
CPXPARAM_MIP_Cuts_Disjunctive 9
Instance29
Gap
100.00%
100.00%
100.00%
100.00%
94.42%
83.59%
78.90%
67.54%
62.58%
60.98%
60.30%
CPXPARAM_MIP_Cuts_Disjunctive 14
Instance30
Gap
100.00%
100.00%
69.10%
61.90%
52.97%
50.17%
47.99%
46.05%
44.50%
44.11%
41.65%
38.46%
29.22%
29.08%
CPXPARAM_MIP_Cuts_Disjunctive 8
Instance31
Gap
100.00%
100.00%
99.75%
99.32%
91.59%
82.26%
75.91%
70.16%
69.31%
38.57%
36.23%
35.05%
35.05%
0.77%
0.77%
0.77%
0
CPXPARAM_MIP_Cuts_Disjunctive 2
Instance32
Gap
100.00%
100.00%
100.00%
69.77%
63.45%
56.77%
48.84%
46.38%
45.70%
45.35%
44.68%
31.70%
31.68%
CPXPARAM_MIP_Cuts_Disjunctive 12
Instance33
Gap
100.00%
100.00%
100.00%
98.79%
92.69%
81.05%
79.40%
77.19%
72.29%
68.78%
67.73%
57.23%
42.21%
37.55%
32.26%
CPXPARAM_MIP_Cuts_Disjunctive 13
Instance34
Gap
100.00%
100.00%
66.38%
51.74%
38.39%
33.98%
29.94%
26.98%
CPXPARAM_MIP_Cuts_Disjunctive 4
Instance35
Gap
100.00%
100.00%
99.38%
98.77%
87.63%
73.22%
72.18%
50.79%
23.55%
CPXPARAM_MIP_Cuts_Disjunctive 9
Instance36
Gap
100.00%
100.00%
100.00%
85.27%
82.45%
73.85%
72.93%
69.52%
62.69%
62.08%
61.84%
61.70%
60.18%
59.96%
59.92%
59.89%
55.80%
55.69%
CPXPARAM_MIP_Cuts_Disjunctive 12
Instance37
Gap
100.00%
100.00%
100.00%
100.00%
100.00%
95.89%
77.74%
77.40%
76.38%
75.72%
67.01%
64.84%
62.37%
58.48%
CPXPARAM_MIP_Cuts_Disjunctive 17
Instance38
Gap
100.00%
100.00%
78.46%
58.43%
34.42%
28.73%
27.22%
26.40%
CPXPARAM_MIP_Cuts_Disjunctive 9
Instance39
Gap
100.00%
100.00%
99.77%
99.55%
94.65%
86.43%
84.36%
80.60%
56.77%
53.57%
38.46%
CPXPARAM_MIP_Cuts_Disjunctive 10
Instance0
Gap
100.00%
100.00%
75.42%
73.26%
64.88%
58.51%
53.96%
53.87%
53.72%
49.75%
49.52%
49.47%
43.93%
43.87%
CPXPARAM_MIP_Cuts_Disjunctive 10
Instance1
Gap
100.00%
100.00%
100.00%
99.28%
95.31%
63.12%
54.59%
53.99%
53.63%
53.59%
46.18%
CPXPARAM_MIP_Cuts_Disjunctive 16
Instance2
Gap
100.00%
100.00%
68.57%
60.19%
57.07%
57.06%
48.55%
43.84%
43.80%
CPXPARAM_MIP_Cuts_Disjunctive 3
Instance3
Gap
100.00%
100.00%
99.62%
99.49%
96.38%
90.91%
88.41%
88.33%
88.05%
85.11%
84.92%
84.81%
CPXPARAM_MIP_Cuts_Disjunctive 9
Instance4
Gap
100.00%
100.00%
100.00%
76.86%
72.59%
66.20%
57.70%
57.70%
48.50%
47.96%
47.39%
CPXPARAM_MIP_Cuts_Disjunctive 7
Instance5
Gap
100.00%
100.00%
100.00%
99.40%
99.04%
89.30%
65.81%
62.41%
62.28%
61.57%
61.45%
61.28%
CPXPARAM_MIP_Cuts_Disjunctive 13
Instance6
Gap
100.00%
100.00%
69.98%
65.46%
61.28%
49.10%
41.94%
40.17%
39.83%
38.47%
38.36%
37.02%
36.99%
CPXPARAM_MIP_Cuts_Disjunctive 6
Instance7
Gap
100.00%
100.00%
100.00%
99.99%
92.16%
83.54%
82.78%
80.25%
CPXPARAM_MIP_Cuts_Disjunctive 10
Instance8
Gap
100.00%
100.00%
59.21%
53.34%
45.00%
44.69%
42.87%
42.33%
42.05%
40.30%
40.26%
40.24%
23.25%
21.67%
21.64%
CPXPARAM_MIP_Cuts_Disjunctive 13
Instance9
Gap
100.00%
100.00%
100.00%
99.37%
99.21%
92.80%
88.53%
87.02%
85.91%
85.80%
85.68%
84.12%
84.12%
CPXPARAM_MIP_Cuts_Disjunctive 12
Instance10
Gap
100.00%
100.00%
62.81%
59.89%
50.60%
35.61%
34.97%
34.29%
32.44%
31.98%
31.97%
22.67%
20.81%
CPXPARAM_MIP_Cuts_Disjunctive 7
Instance11
Gap
100.00%
100.00%
99.97%
99.93%
91.86%
89.10%
88.31%
86.68%
86.59%
85.90%
83.96%
83.22%
83.03%
CPXPARAM_MIP_Cuts_Disjunctive 12
Instance12
Gap
100.00%
100.00%
69.71%
64.56%
53.72%
53.08%
52.51%
50.77%
50.58%
49.89%
43.91%
41.67%
32.59%
32.15%
28.64%
28.49%
CPXPARAM_MIP_Cuts_Disjunctive 7
Instance13
Gap
100.00%
100.00%
100.00%
99.35%
99.30%
94.29%
91.09%
90.21%
86.28%
82.67%
74.57%
73.34%
72.87%
70.43%
65.39%
65.25%
65.08%
64.99%
64.73%
64.12%
CPXPARAM_MIP_Cuts_Disjunctive 17
Instance14
Gap
100.00%
100.00%
67.25%
61.80%
57.45%
50.87%
46.78%
37.97%
37.13%
36.72%
36.70%
36.64%
33.42%
33.01%
CPXPARAM_MIP_Cuts_Disjunctive 7
Instance15
Gap
100.00%
100.00%
99.71%
99.31%
88.22%
75.61%
75.61%
75.61%
75.32%
62.72%
55.38%
CPXPARAM_MIP_Cuts_Disjunctive 11
Instance16
Gap
100.00%
100.00%
60.68%
59.49%
50.57%
30.64%
30.09%
28.05%
21.75%
21.36%
17.62%
17.61%
CPXPARAM_MIP_Cuts_Disjunctive 11
Instance17
Gap
100.00%
100.00%
100.00%
99.43%
99.32%
93.63%
86.11%
85.40%
84.52%
84.35%
84.12%
84.07%
CPXPARAM_MIP_Cuts_Disjunctive 14
Instance18
Gap
100.00%
100.00%
57.84%
51.78%
45.34%
31.80%
26.75%
26.72%
26.18%
23.82%
23.06%
23.06%
19.41%
19.38%
CPXPARAM_MIP_Cuts_Disjunctive 8
Instance19
Gap
100.00%
100.00%
99.54%
99.29%
93.70%
86.31%
84.80%
84.17%
82.38%
CPXPARAM_MIP_Cuts_Disjunctive 12
Instance20
Gap
100.00%
100.00%
89.26%
78.36%
62.92%
62.55%
60.13%
58.72%
56.52%
53.77%
51.96%
51.84%
51.71%
CPXPARAM_MIP_Cuts_Disjunctive 11
Instance21
Gap
100.00%
100.00%
100.00%
99.52%
98.54%
91.93%
89.95%
85.30%
83.79%
83.64%
75.31%
75.05%
72.19%
CPXPARAM_MIP_Cuts_Disjunctive 18
Instance22
Gap
100.00%
100.00%
88.62%
70.72%
49.95%
42.89%
39.29%
35.45%
33.88%
33.11%
CPXPARAM_MIP_Cuts_Disjunctive 7
Instance23
Gap
100.00%
100.00%
99.78%
99.46%
91.87%
44.26%
43.06%
38.14%
CPXPARAM_MIP_Cuts_Disjunctive 9
Instance24
Gap
100.00%
100.00%
84.00%
78.89%
64.96%
59.71%
53.88%
53.88%
53.88%
53.70%
51.86%
51.32%
CPXPARAM_MIP_Cuts_Disjunctive 8
Instance25
Gap
100.00%
100.00%
99.59%
99.18%
94.51%
73.80%
70.03%
68.06%
68.06%
63.27%
56.30%
CPXPARAM_MIP_Cuts_Disjunctive 16
Instance26
Gap
100.00%
100.00%
84.48%
68.92%
46.15%
37.97%
37.92%
34.37%
31.44%
21.01%
20.94%
CPXPARAM_MIP_Cuts_Disjunctive 8
Instance27
Gap
100.00%
100.00%
99.81%
99.61%
95.18%
86.50%
67.06%
53.46%
CPXPARAM_MIP_Cuts_Disjunctive 8
Instance28
Gap
100.00%
100.00%
100.00%
69.66%
57.32%
55.93%
54.35%
49.97%
45.26%
45.24%
44.11%
32.50%
32.28%
31.96%
CPXPARAM_MIP_Cuts_Disjunctive 9
Instance29
Gap
100.00%
100.00%
100.00%
100.00%
94.42%
83.59%
78.90%
67.54%
62.58%
60.98%
60.30%
CPXPARAM_MIP_Cuts_Disjunctive 14
Instance30
Gap
100.00%
100.00%
69.10%
61.90%
52.97%
50.17%
47.99%
46.05%
44.50%
44.11%
41.65%
38.46%
29.22%
29.08%
CPXPARAM_MIP_Cuts_Disjunctive 8
Instance31
Gap
100.00%
100.00%
99.75%
99.32%
91.59%
82.26%
75.91%
70.16%
69.31%
38.57%
36.23%
35.05%
35.05%
0.77%
0.77%
0.77%
0
CPXPARAM_MIP_Cuts_Disjunctive 2
Instance32
Gap
100.00%
100.00%
100.00%
69.77%
63.45%
56.77%
48.84%
46.38%
45.70%
45.35%
44.68%
31.70%
31.68%
CPXPARAM_MIP_Cuts_Disjunctive 12
Instance33
Gap
100.00%
100.00%
100.00%
98.79%
92.69%
81.05%
79.40%
77.19%
72.29%
68.78%
67.73%
57.23%
42.21%
37.55%
32.26%
CPXPARAM_MIP_Cuts_Disjunctive 13
Instance34
Gap
100.00%
100.00%
66.38%
51.74%
38.39%
33.98%
29.94%
26.98%
CPXPARAM_MIP_Cuts_Disjunctive 4
Instance35
Gap
100.00%
100.00%
99.38%
98.77%
87.63%
73.22%
72.18%
50.79%
23.55%
CPXPARAM_MIP_Cuts_Disjunctive 9
Instance36
Gap
100.00%
100.00%
100.00%
85.27%
82.45%
73.85%
72.93%
69.52%
62.69%
62.08%
61.84%
61.70%
60.18%
59.96%
59.92%
59.89%
55.80%
55.69%
CPXPARAM_MIP_Cuts_Disjunctive 12
Instance37
Gap
100.00%
100.00%
100.00%
100.00%
100.00%
95.89%
77.74%
77.40%
76.38%
75.72%
67.01%
64.84%
62.37%
58.48%
CPXPARAM_MIP_Cuts_Disjunctive 17
Instance38
Gap
100.00%
100.00%
78.46%
58.43%
34.42%
28.73%
27.22%
26.40%
CPXPARAM_MIP_Cuts_Disjunctive 9
Instance39
Gap
100.00%
100.00%
99.77%
99.55%
94.65%
86.43%
84.36%
80.60%
56.77%
53.57%
38.46%
CPXPARAM_MIP_Cuts_Disjunctive 10
